Traveling Salesman Problem/TSP_generados/Aleatorio1620391133_14.tsp
NAME: Aleatorio1620391133_14.tsp
COMMENT: Randomly generated scenario
TYPE: TSP
DIMENSION: 14
EDGE_WEIGHT_TYPE: ATT
NODE_COORD_SECTION
1 8.17 3.28
2 9.43 19.02
3 29.37 0.8
4 42.87 16.01
5 40.29 7.11
6 46.14 3.21
7 8.4 34.28
8 16.73 1.29
9 19.13 29.56
10 33.89 20.26
11 31.65 36.44
12 28.86 38.33
13 44.62 13.08
14 46.27 14.45
