Traveling Salesman Problem/TSP_generados/Aleatorio1620391133_14.opt.tour
NAME: Aleatorio1620391133_14.opt.tour
COMMENT: Optimal solution for Aleatorio1620391133_14 (142.4979216825291)
TYPE: TOUR
DIMENSION: 14
TOUR_SECTION
1 2 7 9 12 11 10 4 14 13 6 5 3 8
-1
EOF
